NAME : portcgen-20-7
COMMENT : portcgen N=20, seed=7
TYPE : TSP
DIMENSION : 20
EDGE_WEIGHT_TYPE : EUC_2D
NODE_COORD_SECTION
1 142788 -201948
2 -60661 362021
3 174884 -67303
4 -268510 -283172
5 -378414 96404
6 -19412 -189334
7 -433095 -238080
8 207673 208406
9 -11247 -251949
10 867 -40661
11 143587 -26445
12 25395 -349262
13 -542012 179874
14 -330496 223442
15 420107 309296
16 -103231 137359
17 -77273 -270106
18 -35768 -241090
19 -446203 -112270
20 309924 -158150
